\ Model Cl_30_Ins_4.lp
\ LP format - for model browsing. Use MPS format to capture full model detail.
Maximize
 
Subject To
 obj1: y[0] = 0
 obj2: y[1] = 0
 obj1_Exp: - y[0] + 99 x[0] + 92 x[1] + 89 x[2] + 81 x[3] + 74 x[4]
   + 69 x[5] + 67 x[6] + 67 x[7] + 58 x[8] + 58 x[9] + 54 x[10] + 53 x[11]
   + 46 x[12] + 46 x[13] + 45 x[14] + 40 x[15] + 37 x[16] + 35 x[17]
   + 33 x[18] + 32 x[19] + 28 x[20] + 26 x[21] + 18 x[22] + 17 x[23]
   + 16 x[24] + 15 x[25] + 14 x[26] + 10 x[27] + 9 x[28] + 5 x[29] = 0
 obj2_Exp: - y[1] + 31 x[0] + 95 x[1] + 87 x[2] + 31 x[3] + 92 x[4]
   + 76 x[5] + 89 x[6] + 11 x[7] + 65 x[8] + 16 x[9] + 70 x[10] + 93 x[11]
   + 55 x[12] + 66 x[13] + 12 x[14] + 47 x[15] + 6 x[16] + 99 x[17]
   + 76 x[18] + 25 x[19] + 56 x[20] + 5 x[21] + 78 x[22] + 32 x[23]
   + 78 x[24] + 59 x[25] + 69 x[26] + 55 x[27] + 43 x[28] + 66 x[29] = 0
 Budget: 109 x[0] + 102 x[1] + 99 x[2] + 91 x[3] + 84 x[4] + 79 x[5]
   + 77 x[6] + 77 x[7] + 68 x[8] + 68 x[9] + 64 x[10] + 63 x[11] + 56 x[12]
   + 56 x[13] + 55 x[14] + 50 x[15] + 47 x[16] + 45 x[17] + 43 x[18]
   + 42 x[19] + 38 x[20] + 36 x[21] + 28 x[22] + 27 x[23] + 26 x[24]
   + 25 x[25] + 24 x[26] + 20 x[27] + 19 x[28] + 15 x[29] <= 685
Bounds
Binaries
 x[0] x[1] x[2] x[3] x[4] x[5] x[6] x[7] x[8] x[9] x[10] x[11] x[12] x[13]
 x[14] x[15] x[16] x[17] x[18] x[19] x[20] x[21] x[22] x[23] x[24] x[25]
 x[26] x[27] x[28] x[29]
Generals
 y[0] y[1]
End
